(set-logic QF_LRA)
(declare-const heads Real)
(declare-const tails Real)
(declare-const total Real)
(assert (= heads (/ 1 2)))
(assert (= tails (/ 1 2)))
(assert (= total (+ heads tails)))
(assert (= total (/ 3 2)))
(check-sat)
